139
100000
9241
17948
15118
19080
2220
9481
13687
10224
100
15561
12170
16678
3860
10529
13505
3825
21259
2781
403
18267
10660
3066
5335
3224
10563
2752
9982
3433
16196
636
5020
5468
21683
2668
16914
24309
8400
7893
23068
18164
8063
9779
17169
11071
13105
15685
15284
946
9841
3863
5687
15553
4629
507
6767
4279
3627
9268
5643
6615
5400
21835
13573
21393
18380
589
19350
20820
5716
10691
4424
20232
8772
6802
3128
3002
10063
9109
16103
20310
4074
3280
7011
24750
9013
20993
17711
12297
21595
4863
6425
11153
2281
428
14782
18499
7016
14335
18717
7095
15807
8747
10365
14975
22706
7930
11307
2907
5887
13402
10518
2180
16013
8273
368
20931
4821
17144
23601
22927
12491
7969
4173
13966
17256
12256
13397
22545
6424
16295
3163
9628
21803
7295
22324
10
5914
3704
9816
